80
50 100 102 238 274 400 435 453 553 661 674 725 760 766 772 799 834 837 840 898 922 953 957 966 977 983 1064 1071 1112 1153 1214 1242 1310 1325 1339 1350 1351 1382 1404 1406 1421 1436 1451 1459 1465 1468 1488 1510 1537 1552 1566 1572 1592 1618 1621 1634 1644 1684 1703 1711 1725 1766 1769 1783 1790 1796 1797 1825 1826 1828 1844 1852 1881 1882 1896 1918 1939 1954 1983 1988
